c Result of efficient AIG-to-CNF conversion using package CNF
p cnf 722 2701
-2 3 548 563 649 0
2 -649 0
2 -3 0
2 -563 0
2 -548 0
-3 -4 344 479 0
-3 200 344 479 0
3 -479 0
3 -344 0
3 4 -200 0
4 -717 5 -183 0
4 717 5 -17 0
-4 -5 0
-4 -717 183 0
-4 717 17 0
-5 716 6 7 9 0
5 -716 0
5 -9 0
5 -7 0
5 -6 0
-6 708 709 0
6 -708 0
6 -709 0
-7 710 711 8 0
7 -8 0
7 -711 0
7 -710 0
-8 712 713 714 715 0
8 -715 0
8 -714 0
8 -712 0
8 -713 0
-9 10 11 12 16 0
9 -16 0
9 -10 0
9 -12 0
9 -11 0
-10 705 706 707 0
10 -705 0
10 -707 0
10 -706 0
-11 699 700 0
11 -699 0
11 -700 0
-12 13 14 0
12 -13 0
12 -14 0
-13 690 691 692 693 0
13 -693 0
13 -692 0
13 -690 0
13 -691 0
-14 696 697 698 15 0
14 -15 0
14 -698 0
14 -696 0
14 -697 0
-15 694 695 0
15 -694 0
15 -695 0
-16 701 702 703 704 0
16 -704 0
16 -703 0
16 -701 0
16 -702 0
-17 -718 157 0
-17 718 18 0
17 718 -18 0
17 -718 -157 0
18 719 -19 0
18 -719 -123 0
-18 -719 123 0
-18 719 19 0
19 720 -20 0
19 -720 -96 0
-19 -720 96 0
-19 720 20 0
20 721 -21 0
20 -721 -73 0
-20 -721 73 0
-20 721 21 0
21 22 -45 0
21 22 -65 0
-21 -22 0
-21 45 65 0
-22 23 27 34 44 0
22 -44 0
22 -23 0
22 -34 0
22 -27 0
-23 662 24 25 0
-23 694 24 25 0
23 -25 0
23 -24 0
23 -662 -694 0
-24 661 692 0
-24 660 693 0
-24 692 693 0
-24 660 661 0
24 -660 -692 0
24 -661 -693 0
-25 695 26 0
-25 663 26 0
25 -26 0
25 -663 -695 0
-26 665 696 0
-26 664 697 0
-26 696 697 0
-26 664 665 0
26 -664 -696 0
26 -665 -697 0
-27 28 29 0
27 -28 0
27 -29 0
28 -672 -704 0
-28 672 0
-28 704 0
-29 30 31 0
29 -30 0
29 -31 0
-30 671 702 0
-30 670 703 0
-30 702 703 0
-30 670 671 0
30 -670 -702 0
30 -671 -703 0
-31 32 33 0
31 -32 0
31 -33 0
-32 669 700 0
-32 668 701 0
-32 700 701 0
-32 668 669 0
32 -668 -700 0
32 -669 -701 0
-33 667 698 0
-33 666 699 0
-33 698 699 0
-33 666 667 0
33 -666 -698 0
33 -667 -699 0
-34 35 40 0
34 -35 0
34 -40 0
-35 36 38 0
35 -36 0
35 -38 0
-36 707 37 0
-36 675 37 0
36 -37 0
36 -675 -707 0
-37 674 705 0
-37 673 706 0
-37 705 706 0
-37 673 674 0
37 -673 -705 0
37 -674 -706 0
-38 709 39 0
-38 677 39 0
38 -39 0
38 -677 -709 0
-39 678 708 0
-39 676 710 0
-39 708 710 0
-39 676 678 0
39 -676 -708 0
39 -678 -710 0
-40 684 41 43 0
-40 716 41 43 0
40 -43 0
40 -41 0
40 -684 -716 0
-41 713 42 0
-41 681 42 0
41 -42 0
41 -681 -713 0
-42 680 711 0
-42 679 712 0
-42 711 712 0
-42 679 680 0
42 -679 -711 0
42 -680 -712 0
-43 683 714 0
-43 682 715 0
-43 714 715 0
-43 682 683 0
43 -682 -714 0
43 -683 -715 0
-44 659 690 0
-44 658 691 0
-44 690 691 0
-44 658 659 0
44 -658 -690 0
44 -659 -691 0
45 46 47 -58 0
45 46 -47 -48 0
-45 -46 0
-45 -47 48 0
-45 47 58 0
46 -685 -717 0
-46 685 0
-46 717 0
47 -686 -718 0
-47 686 0
-47 718 0
48 49 -50 0
48 -49 -55 0
-48 -49 55 0
-48 49 50 0
49 -687 -719 0
-49 687 0
-49 719 0
50 51 -52 0
50 -51 -54 0
-50 -51 54 0
-50 51 52 0
51 -688 -720 0
-51 688 0
-51 720 0
52 -672 53 0
52 -671 -53 0
-52 672 53 0
-52 671 -53 0
53 -689 -721 0
-53 689 0
-53 721 0
54 -670 53 0
54 -669 -53 0
-54 670 53 0
-54 669 -53 0
55 51 -56 0
55 -51 -57 0
-55 -51 57 0
-55 51 56 0
56 -668 53 0
56 -667 -53 0
-56 668 53 0
-56 667 -53 0
57 -666 53 0
57 -665 -53 0
-57 666 53 0
-57 665 -53 0
58 49 -59 0
58 -49 -62 0
-58 -49 62 0
-58 49 59 0
59 51 -60 0
59 -51 -61 0
-59 -51 61 0
-59 51 60 0
60 -680 53 0
60 -679 -53 0
-60 680 53 0
-60 679 -53 0
61 -678 53 0
61 -677 -53 0
-61 678 53 0
-61 677 -53 0
62 51 -63 0
62 -51 -64 0
-62 -51 64 0
-62 51 63 0
63 -676 53 0
63 -675 -53 0
-63 676 53 0
-63 675 -53 0
64 -674 53 0
64 -673 -53 0
-64 674 53 0
-64 673 -53 0
65 -46 -66 0
-65 46 0
-65 66 0
66 47 -67 0
-66 -47 0
-66 67 0
67 49 -68 0
67 -49 -71 0
-67 -49 71 0
-67 49 68 0
68 51 -69 0
68 -51 -70 0
-68 -51 70 0
-68 51 69 0
69 -664 53 0
69 -663 -53 0
-69 664 53 0
-69 663 -53 0
70 -662 53 0
70 -661 -53 0
-70 662 53 0
-70 661 -53 0
71 51 -72 0
71 -658 -51 53 0
-71 51 72 0
-71 -51 -53 0
-71 658 -51 0
72 -660 53 0
72 -659 -53 0
-72 660 53 0
-72 659 -53 0
73 22 -74 0
73 22 -89 0
-73 -22 0
-73 74 89 0
74 46 47 -82 0
74 46 -47 -75 0
-74 -46 0
-74 -47 75 0
-74 47 82 0
75 49 -76 0
75 -49 -79 0
-75 -49 79 0
-75 49 76 0
76 51 -77 0
76 -51 -78 0
-76 -51 78 0
-76 51 77 0
77 -671 53 0
77 -670 -53 0
-77 671 53 0
-77 670 -53 0
78 -669 53 0
78 -668 -53 0
-78 669 53 0
-78 668 -53 0
79 51 -80 0
79 -51 -81 0
-79 -51 81 0
-79 51 80 0
80 -667 53 0
80 -666 -53 0
-80 667 53 0
-80 666 -53 0
81 -665 53 0
81 -664 -53 0
-81 665 53 0
-81 664 -53 0
82 49 -83 0
82 -49 -86 0
-82 -49 86 0
-82 49 83 0
83 51 -84 0
83 -51 -85 0
-83 -51 85 0
-83 51 84 0
84 -679 53 0
84 -678 -53 0
-84 679 53 0
-84 678 -53 0
85 -677 53 0
85 -676 -53 0
-85 677 53 0
-85 676 -53 0
86 51 -87 0
86 -51 -88 0
-86 -51 88 0
-86 51 87 0
87 -675 53 0
87 -674 -53 0
-87 675 53 0
-87 674 -53 0
88 -673 53 0
88 -672 -53 0
-88 673 53 0
-88 672 -53 0
89 -46 -90 0
-89 46 0
-89 90 0
90 47 -91 0
-90 -47 0
-90 91 0
91 49 -92 0
91 -49 -95 0
-91 -49 95 0
-91 49 92 0
92 51 -93 0
92 -51 -94 0
-92 -51 94 0
-92 51 93 0
93 -663 53 0
93 -662 -53 0
-93 663 53 0
-93 662 -53 0
94 -661 53 0
94 -660 -53 0
-94 661 53 0
-94 660 -53 0
95 -658 51 -53 0
95 -659 51 53 0
-95 -51 0
-95 658 -53 0
-95 659 53 0
96 721 -97 0
96 -721 -110 0
-96 -721 110 0
-96 721 97 0
97 22 -98 0
97 22 -105 0
-97 -22 0
-97 98 105 0
98 46 47 -102 0
98 46 -47 -99 0
-98 -46 0
-98 -47 99 0
-98 47 102 0
99 49 -100 0
99 -49 -101 0
-99 -49 101 0
-99 49 100 0
100 51 -54 0
100 -51 -56 0
-100 -51 56 0
-100 51 54 0
101 51 -57 0
101 -51 -69 0
-101 -51 69 0
-101 51 57 0
102 49 -103 0
102 -49 -104 0
-102 -49 104 0
-102 49 103 0
103 51 -61 0
103 -51 -63 0
-103 -51 63 0
-103 51 61 0
104 -51 -52 0
104 51 -64 0
-104 51 64 0
-104 -51 52 0
105 -46 -106 0
-105 46 0
-105 106 0
106 47 -107 0
-106 -47 0
-106 107 0
107 49 -108 0
107 -49 -109 0
-107 -49 109 0
-107 49 108 0
108 51 -70 0
108 -51 -72 0
-108 -51 72 0
-108 51 70 0
109 -658 51 53 0
-109 658 0
-109 -53 0
-109 -51 0
110 22 -111 0
110 22 -118 0
-110 -22 0
-110 111 118 0
111 46 47 -115 0
111 46 -47 -112 0
-111 -46 0
-111 -47 112 0
-111 47 115 0
112 49 -113 0
112 -49 -114 0
-112 -49 114 0
-112 49 113 0
113 51 -78 0
113 -51 -80 0
-113 -51 80 0
-113 51 78 0
114 51 -81 0
114 -51 -93 0
-114 -51 93 0
-114 51 81 0
115 49 -116 0
115 -49 -117 0
-115 -49 117 0
-115 49 116 0
116 51 -85 0
116 -51 -87 0
-116 -51 87 0
-116 51 85 0
117 -51 -77 0
117 51 -88 0
-117 51 88 0
-117 -51 77 0
118 -46 -119 0
-118 46 0
-118 119 0
119 47 -120 0
-119 -47 0
-119 120 0
120 49 -121 0
-120 -49 0
-120 121 0
121 51 -94 0
121 -51 -122 0
-121 -51 122 0
-121 51 94 0
122 -659 53 0
122 -658 -53 0
-122 659 53 0
-122 658 -53 0
123 720 -124 0
123 -720 -142 0
-123 -720 142 0
-123 720 124 0
124 721 -125 0
124 -721 -132 0
-124 -721 132 0
-124 721 125 0
125 22 -126 0
125 22 -129 0
-125 -22 0
-125 126 129 0
126 46 47 -128 0
126 46 -47 -127 0
-126 -46 0
-126 -47 127 0
-126 47 128 0
127 49 -55 0
127 -49 -68 0
-127 -49 68 0
-127 49 55 0
128 -49 -50 0
128 49 -62 0
-128 49 62 0
-128 -49 50 0
129 -46 -130 0
-129 46 0
-129 130 0
130 47 -131 0
-130 -47 0
-130 131 0
131 49 -71 0
-131 -49 0
-131 71 0
132 47 -134 0
132 46 -133 -134 0
-132 134 0
-132 -47 133 0
-132 -46 -47 0
133 49 -79 0
133 -49 -92 0
-133 -49 92 0
-133 49 79 0
134 32 34 -135 137 0
-134 -137 0
-134 -32 0
-134 -34 0
-134 135 0
-135 46 47 136 0
135 -46 0
135 -136 0
135 -47 0
136 -49 -76 0
136 49 -86 0
-136 49 86 0
-136 -49 76 0
-137 28 138 -141 0
-137 28 46 138 0
137 -28 0
137 -138 0
137 -46 141 0
-138 25 139 140 0
138 -25 0
138 -139 0
138 -140 0
-139 662 24 33 0
-139 694 24 33 0
139 -33 0
139 -24 0
139 -662 -694 0
-140 30 44 0
140 -30 0
140 -44 0
141 49 -95 0
-141 -49 0
-141 95 0
142 721 -143 0
142 -721 -149 0
-142 -721 149 0
-142 721 143 0
143 46 -145 0
143 47 -144 -145 0
-143 145 0
-143 -46 144 0
-143 -46 -47 0
144 -658 49 51 53 0
-144 -53 0
-144 -51 0
-144 658 0
-144 -49 0
145 22 -146 -148 0
145 22 47 -146 0
-145 -22 0
-145 146 0
-145 -47 148 0
-146 46 47 147 0
146 -46 0
146 -147 0
146 -47 0
147 -49 -100 0
147 49 -104 0
-147 49 104 0
-147 -49 100 0
148 49 -101 0
148 -49 -108 0
-148 -49 108 0
-148 49 101 0
149 138 150 -154 0
-149 -138 0
-149 -150 0
-149 154 0
-150 32 151 153 0
150 -32 0
150 -151 0
150 -153 0
-151 38 152 0
151 -38 0
151 -152 0
-152 40 46 0
152 -40 0
152 -46 0
-153 28 36 0
153 -28 0
153 -36 0
154 47 -155 0
154 -47 -156 0
-154 -47 156 0
-154 47 155 0
155 -49 -113 0
155 49 -117 0
-155 49 117 0
-155 -49 113 0
156 49 -114 0
156 -49 -121 0
-156 -49 121 0
-156 49 114 0
157 719 -158 0
157 -719 -172 0
-157 -719 172 0
-157 719 158 0
158 720 -159 0
158 -720 -166 0
-158 -720 166 0
-158 720 159 0
159 721 -160 0
159 -721 -164 0
-159 -721 164 0
-159 721 160 0
160 161 -163 0
-160 -161 0
-160 163 0
-161 28 35 162 0
161 -162 0
161 -35 0
161 -28 0
-162 23 31 140 152 0
162 -152 0
162 -23 0
162 -140 0
162 -31 0
163 47 -48 0
163 -47 -67 0
-163 -47 67 0
-163 47 48 0
164 161 -165 0
-164 -161 0
-164 165 0
165 47 -75 0
165 -47 -91 0
-165 -47 91 0
-165 47 75 0
166 721 -167 0
166 -721 -170 0
-166 -721 170 0
-166 721 167 0
167 44 153 -168 169 0
-167 -169 0
-167 -44 0
-167 168 0
-167 -153 0
168 47 -99 0
168 -47 -107 0
-168 -47 107 0
-168 47 99 0
-169 23 29 151 0
169 -23 0
169 -29 0
169 -151 0
170 161 -171 0
-170 -161 0
-170 171 0
171 47 -112 0
171 -47 -120 0
-171 -47 120 0
-171 47 112 0
172 720 -173 0
172 -720 -178 0
-172 -720 178 0
-172 720 173 0
173 721 -174 0
173 -721 -176 0
-173 -721 176 0
-173 721 174 0
174 161 -175 0
-174 -161 0
-174 175 0
175 47 -127 0
175 -47 -131 0
-175 -47 131 0
-175 47 127 0
176 161 -177 0
-176 -161 0
-176 177 0
177 47 -133 0
177 -47 -141 0
-177 -47 141 0
-177 47 133 0
178 721 -179 0
178 -721 -181 0
-178 -721 181 0
-178 721 179 0
179 161 -180 0
-179 -161 0
-179 180 0
180 -47 -144 0
180 47 -148 0
-180 47 148 0
-180 -47 144 0
181 161 -182 0
-181 -161 0
-181 182 0
182 47 -156 0
-182 -47 0
-182 156 0
183 718 -184 0
-183 -718 0
-183 184 0
184 719 -185 0
184 -719 -192 0
-184 -719 192 0
-184 719 185 0
185 720 -186 0
185 -720 -189 0
-185 -720 189 0
-185 720 186 0
186 721 -187 0
186 -721 -188 0
-186 -721 188 0
-186 721 187 0
187 -66 161 0
-187 66 0
-187 -161 0
188 -90 161 0
-188 90 0
-188 -161 0
189 721 -190 0
189 -721 -191 0
-189 -721 191 0
-189 721 190 0
190 -106 161 0
-190 106 0
-190 -161 0
191 -119 161 0
-191 119 0
-191 -161 0
192 720 -193 0
192 -720 -198 0
-192 -720 198 0
-192 720 193 0
193 721 -194 0
193 -721 -195 0
-193 -721 195 0
-193 721 194 0
194 -130 161 0
-194 130 0
-194 -161 0
195 -141 196 0
-195 141 0
-195 -196 0
-196 30 47 150 197 0
196 -197 0
196 -30 0
196 -150 0
196 -47 0
-197 25 44 139 0
197 -25 0
197 -44 0
197 -139 0
198 721 -199 0
-198 -721 0
-198 199 0
199 -144 196 0
-199 144 0
-199 -196 0
200 22 46 -201 0
-200 -22 0
-200 201 0
-200 -46 0
-201 -47 311 0
-201 47 202 0
201 47 -202 0
201 -47 -311 0
202 49 -203 0
202 -49 -275 0
-202 -49 275 0
-202 49 203 0
203 51 -204 0
203 -51 -250 0
-203 -51 250 0
-203 51 204 0
204 53 -205 0
204 -53 -228 0
-204 -53 228 0
-204 53 205 0
205 -717 5 -221 0
205 717 5 -206 0
-205 -5 0
-205 -717 221 0
-205 717 206 0
206 718 -207 0
206 -718 -214 0
-206 -718 214 0
-206 718 207 0
207 719 -208 0
207 -719 -211 0
-207 -719 211 0
-207 719 208 0
208 720 -209 0
208 -720 -210 0
-208 -720 210 0
-208 720 209 0
209 -680 721 0
209 -679 -721 0
-209 680 721 0
-209 679 -721 0
210 -678 721 0
210 -677 -721 0
-210 678 721 0
-210 677 -721 0
211 720 -212 0
211 -720 -213 0
-211 -720 213 0
-211 720 212 0
212 -676 721 0
212 -675 -721 0
-212 676 721 0
-212 675 -721 0
213 -674 721 0
213 -673 -721 0
-213 674 721 0
-213 673 -721 0
214 719 -215 0
214 -719 -218 0
-214 -719 218 0
-214 719 215 0
215 720 -216 0
215 -720 -217 0
-215 -720 217 0
-215 720 216 0
216 -672 721 0
216 -671 -721 0
-216 672 721 0
-216 671 -721 0
217 -670 721 0
217 -669 -721 0
-217 670 721 0
-217 669 -721 0
218 720 -219 0
218 -720 -220 0
-218 -720 220 0
-218 720 219 0
219 -668 721 0
219 -667 -721 0
-219 668 721 0
-219 667 -721 0
220 -666 721 0
220 -665 -721 0
-220 666 721 0
-220 665 -721 0
221 718 -222 0
-221 -718 0
-221 222 0
222 719 -223 0
222 -719 -226 0
-222 -719 226 0
-222 719 223 0
223 720 -224 0
223 -720 -225 0
-223 -720 225 0
-223 720 224 0
224 -664 721 0
224 -663 -721 0
-224 664 721 0
-224 663 -721 0
225 -662 721 0
225 -661 -721 0
-225 662 721 0
-225 661 -721 0
226 720 -227 0
226 -658 -720 721 0
-226 720 227 0
-226 -720 -721 0
-226 658 -720 0
227 -660 721 0
227 -659 -721 0
-227 660 721 0
-227 659 -721 0
228 -717 5 -244 0
228 717 5 -229 0
-228 -5 0
-228 -717 244 0
-228 717 229 0
229 718 -230 0
229 -718 -237 0
-229 -718 237 0
-229 718 230 0
230 719 -231 0
230 -719 -234 0
-230 -719 234 0
-230 719 231 0
231 720 -232 0
231 -720 -233 0
-231 -720 233 0
-231 720 232 0
232 -679 721 0
232 -678 -721 0
-232 679 721 0
-232 678 -721 0
233 -677 721 0
233 -676 -721 0
-233 677 721 0
-233 676 -721 0
234 720 -235 0
234 -720 -236 0
-234 -720 236 0
-234 720 235 0
235 -675 721 0
235 -674 -721 0
-235 675 721 0
-235 674 -721 0
236 -673 721 0
236 -672 -721 0
-236 673 721 0
-236 672 -721 0
237 719 -238 0
237 -719 -241 0
-237 -719 241 0
-237 719 238 0
238 720 -239 0
238 -720 -240 0
-238 -720 240 0
-238 720 239 0
239 -671 721 0
239 -670 -721 0
-239 671 721 0
-239 670 -721 0
240 -669 721 0
240 -668 -721 0
-240 669 721 0
-240 668 -721 0
241 720 -242 0
241 -720 -243 0
-241 -720 243 0
-241 720 242 0
242 -667 721 0
242 -666 -721 0
-242 667 721 0
-242 666 -721 0
243 -665 721 0
243 -664 -721 0
-243 665 721 0
-243 664 -721 0
244 718 -245 0
-244 -718 0
-244 245 0
245 719 -246 0
245 -719 -249 0
-245 -719 249 0
-245 719 246 0
246 720 -247 0
246 -720 -248 0
-246 -720 248 0
-246 720 247 0
247 -663 721 0
247 -662 -721 0
-247 663 721 0
-247 662 -721 0
248 -661 721 0
248 -660 -721 0
-248 661 721 0
-248 660 -721 0
249 -658 720 -721 0
249 -659 720 721 0
-249 -720 0
-249 658 -721 0
-249 659 721 0
250 53 -251 0
250 -53 -263 0
-250 -53 263 0
-250 53 251 0
251 -717 5 -259 0
251 717 5 -252 0
-251 -5 0
-251 -717 259 0
-251 717 252 0
252 718 -253 0
252 -718 -256 0
-252 -718 256 0
-252 718 253 0
253 719 -254 0
253 -719 -255 0
-253 -719 255 0
-253 719 254 0
254 720 -210 0
254 -720 -212 0
-254 -720 212 0
-254 720 210 0
255 720 -213 0
255 -720 -216 0
-255 -720 216 0
-255 720 213 0
256 719 -257 0
256 -719 -258 0
-256 -719 258 0
-256 719 257 0
257 720 -217 0
257 -720 -219 0
-257 -720 219 0
-257 720 217 0
258 720 -220 0
258 -720 -224 0
-258 -720 224 0
-258 720 220 0
259 718 -260 0
-259 -718 0
-259 260 0
260 719 -261 0
260 -719 -262 0
-260 -719 262 0
-260 719 261 0
261 720 -225 0
261 -720 -227 0
-261 -720 227 0
-261 720 225 0
262 -658 720 721 0
-262 658 0
-262 -721 0
-262 -720 0
263 -717 5 -271 0
263 717 5 -264 0
-263 -5 0
-263 -717 271 0
-263 717 264 0
264 718 -265 0
264 -718 -268 0
-264 -718 268 0
-264 718 265 0
265 719 -266 0
265 -719 -267 0
-265 -719 267 0
-265 719 266 0
266 720 -233 0
266 -720 -235 0
-266 -720 235 0
-266 720 233 0
267 720 -236 0
267 -720 -239 0
-267 -720 239 0
-267 720 236 0
268 719 -269 0
268 -719 -270 0
-268 -719 270 0
-268 719 269 0
269 720 -240 0
269 -720 -242 0
-269 -720 242 0
-269 720 240 0
270 720 -243 0
270 -720 -247 0
-270 -720 247 0
-270 720 243 0
271 718 -272 0
-271 -718 0
-271 272 0
272 719 -273 0
-272 -719 0
-272 273 0
273 720 -248 0
273 -720 -274 0
-273 -720 274 0
-273 720 248 0
274 -659 721 0
274 -658 -721 0
-274 659 721 0
-274 658 -721 0
275 51 -276 0
275 -51 -295 0
-275 -51 295 0
-275 51 276 0
276 53 -277 0
276 -53 -283 0
-276 -53 283 0
-276 53 277 0
277 -717 5 -281 0
277 717 5 -278 0
-277 -5 0
-277 -717 281 0
-277 717 278 0
-278 718 280 0
-278 -718 279 0
278 -718 -279 0
278 718 -280 0
279 719 -218 0
279 -719 -223 0
-279 -719 223 0
-279 719 218 0
280 719 -211 0
280 -719 -215 0
-280 -719 215 0
-280 719 211 0
281 718 -282 0
-281 -718 0
-281 282 0
282 719 -226 0
-282 -719 0
-282 226 0
283 -284 289 292 0
-283 284 0
-283 -289 0
-283 -292 0
284 -285 287 288 0
284 -286 287 288 0
-284 -288 0
-284 -287 0
-284 285 286 0
-285 717 718 0
285 -717 0
285 -718 0
286 719 -234 0
286 -719 -238 0
-286 -719 238 0
-286 719 234 0
-287 7 14 0
287 -7 0
287 -14 0
-288 708 709 716 13 0
288 -13 0
288 -716 0
288 -708 0
288 -709 0
-289 704 10 290 291 0
289 -704 0
289 -291 0
289 -290 0
289 -10 0
-290 702 703 0
290 -702 0
290 -703 0
-291 699 700 701 0
291 -699 0
291 -701 0
291 -700 0
-292 718 -294 0
-292 717 -293 0
-292 717 718 0
292 -718 293 0
292 -717 294 0
292 -717 -718 0
293 719 -241 0
293 -719 -246 0
-293 -719 246 0
-293 719 241 0
294 719 -249 0
-294 -719 0
-294 249 0
295 53 -296 0
295 -53 -304 0
-295 -53 304 0
-295 53 296 0
296 718 298 -300 0
296 -297 298 -300 0
-296 300 0
-296 -298 0
-296 -718 297 0
297 719 -258 0
297 -719 -261 0
-297 -719 261 0
-297 719 258 0
-298 16 288 299 0
298 -16 0
298 -288 0
298 -299 0
-299 699 700 705 706 0
299 -706 0
299 -705 0
299 -699 0
299 -700 0
300 707 287 -301 0
-300 301 0
-300 -287 0
-300 -707 0
301 717 -302 0
301 -717 718 -303 0
301 717 -718 0
-301 -717 -718 0
-301 -717 303 0
-301 717 718 302 0
302 719 -255 0
302 -719 -257 0
-302 -719 257 0
-302 719 255 0
303 -658 719 720 721 0
-303 -721 0
-303 -720 0
-303 658 0
-303 -719 0
304 305 -308 0
-304 -305 0
-304 308 0
-305 9 306 0
305 -9 0
305 -306 0
-306 710 711 6 307 0
306 -710 0
306 -307 0
306 -6 0
306 -711 0
-307 716 717 8 0
307 -8 0
307 -717 0
307 -716 0
308 718 -309 0
308 -718 -310 0
-308 -718 310 0
-308 718 309 0
309 719 -267 0
309 -719 -269 0
-309 -719 269 0
-309 719 267 0
310 719 -270 0
310 -719 -273 0
-310 -719 273 0
-310 719 270 0
311 49 -312 0
311 -49 -323 0
-311 -49 323 0
-311 49 312 0
312 51 -313 0
312 -51 -318 0
-312 -51 318 0
-312 51 313 0
313 689 -314 0
313 -689 -721 -316 0
313 721 -314 0
-313 689 314 0
-313 721 314 0
-313 -689 -721 316 0
314 305 -315 0
-314 -305 0
-314 315 0
315 718 -214 0
315 -718 -222 0
-315 -718 222 0
-315 718 214 0
316 305 -317 0
-316 -305 0
-316 317 0
317 718 -237 0
317 -718 -245 0
-317 -718 245 0
-317 718 237 0
318 689 -319 0
318 -689 -721 -321 0
318 721 -319 0
-318 689 319 0
-318 721 319 0
-318 -689 -721 321 0
319 305 -320 0
-319 -305 0
-319 320 0
320 718 -256 0
320 -718 -260 0
-320 -718 260 0
-320 718 256 0
321 305 -322 0
-321 -305 0
-321 322 0
322 718 -268 0
322 -718 -272 0
-322 -718 272 0
-322 718 268 0
323 51 -324 0
323 -51 -334 0
-323 -51 334 0
-323 51 324 0
324 53 -325 0
324 -53 -327 0
-324 -53 327 0
-324 53 325 0
325 12 289 306 -326 0
-325 326 0
-325 -12 0
-325 -306 0
-325 -289 0
326 718 -279 0
326 -718 -282 0
-326 -718 282 0
-326 718 279 0
327 701 328 329 -331 0
-327 -701 0
-327 331 0
-327 -329 0
-327 -328 0
-328 710 711 0
328 -710 0
328 -711 0
-329 707 330 0
329 -707 0
329 -330 0
-330 704 12 0
330 -704 0
330 -12 0
331 299 307 332 -333 0
-331 333 0
-331 -299 0
-331 -332 0
-331 -307 0
-332 702 703 708 709 0
332 -709 0
332 -708 0
332 -702 0
332 -703 0
333 718 -293 0
333 -718 -294 0
-333 -718 294 0
-333 718 293 0
334 53 -335 0
334 -53 -342 0
-334 -53 342 0
-334 53 335 0
335 332 -336 337 340 0
-335 -340 0
-335 -332 0
-335 -337 0
-335 336 0
336 718 -297 0
336 -718 -303 0
-336 -718 303 0
-336 718 297 0
-337 711 338 10 339 0
337 -711 0
337 -339 0
337 -10 0
337 -338 0
-338 714 715 0
338 -714 0
338 -715 0
-339 716 717 0
339 -716 0
339 -717 0
-340 710 341 291 330 0
340 -710 0
340 -330 0
340 -291 0
340 -341 0
-341 712 713 0
341 -712 0
341 -713 0
342 305 -343 0
-342 -305 0
-342 343 0
343 718 -310 0
-343 -718 0
-343 310 0
-344 -345 -368 385 0
-344 345 368 385 0
344 -385 0
344 -345 368 0
344 345 -368 0
345 -717 5 -361 0
345 717 5 -346 0
-345 -5 0
-345 -717 361 0
-345 717 346 0
-346 -718 354 0
-346 718 347 0
346 718 -347 0
346 -718 -354 0
347 719 -348 0
347 -719 -351 0
-347 -719 351 0
-347 719 348 0
348 720 -349 0
348 -720 -350 0
-348 -720 350 0
-348 720 349 0
349 721 -73 0
349 -721 -97 0
-349 -721 97 0
-349 721 73 0
350 721 -110 0
350 -721 -125 0
-350 -721 125 0
-350 721 110 0
351 720 -352 0
351 -720 -353 0
-351 -720 353 0
-351 720 352 0
352 721 -132 0
352 -721 -143 0
-352 -721 143 0
-352 721 132 0
353 721 -149 0
353 -721 -160 0
-353 -721 160 0
-353 721 149 0
354 719 -355 0
354 -719 -358 0
-354 -719 358 0
-354 719 355 0
355 720 -356 0
355 -720 -357 0
-355 -720 357 0
-355 720 356 0
356 721 -164 0
356 -721 -167 0
-356 -721 167 0
-356 721 164 0
357 721 -170 0
357 -721 -174 0
-357 -721 174 0
-357 721 170 0
358 720 -359 0
358 -720 -360 0
-358 -720 360 0
-358 720 359 0
359 721 -176 0
359 -721 -179 0
-359 -721 179 0
-359 721 176 0
360 721 -181 0
360 -721 -187 0
-360 -721 187 0
-360 721 181 0
361 718 -362 0
-361 -718 0
-361 362 0
362 719 -363 0
362 -719 -366 0
-362 -719 366 0
-362 719 363 0
363 720 -364 0
363 -720 -365 0
-363 -720 365 0
-363 720 364 0
364 721 -188 0
364 -721 -190 0
-364 -721 190 0
-364 721 188 0
365 721 -191 0
365 -721 -194 0
-365 -721 194 0
-365 721 191 0
366 720 -367 0
-366 -720 0
-366 367 0
367 721 -141 196 0
367 -721 -144 196 0
-367 -196 0
-367 -721 144 0
-367 721 141 0
368 22 46 -369 0
-368 -22 0
-368 369 0
-368 -46 0
-369 -47 377 0
-369 47 370 0
369 47 -370 0
369 -47 -377 0
370 49 -371 0
370 -49 -374 0
-370 -49 374 0
-370 49 371 0
371 51 -372 0
371 -51 -373 0
-371 -51 373 0
-371 51 372 0
372 53 -228 0
372 -53 -251 0
-372 -53 251 0
-372 53 228 0
373 53 -263 0
373 -53 -277 0
-373 -53 277 0
-373 53 263 0
374 51 -375 0
374 -51 -376 0
-374 -51 376 0
-374 51 375 0
375 53 -283 0
375 -53 -296 0
-375 -53 296 0
-375 53 283 0
376 689 -304 0
376 -689 -721 -314 0
376 721 -304 0
-376 689 304 0
-376 721 304 0
-376 -689 -721 314 0
377 49 -378 0
377 -49 -381 0
-377 -49 381 0
-377 49 378 0
378 51 -379 0
378 -51 -380 0
-378 -51 380 0
-378 51 379 0
379 689 -316 0
379 -689 -721 -319 0
379 721 -316 0
-379 689 316 0
-379 721 316 0
-379 -689 -721 319 0
380 53 -321 0
380 -53 -325 0
-380 -53 325 0
-380 53 321 0
381 51 -382 0
381 -51 -383 0
-381 -51 383 0
-381 51 382 0
382 53 -327 0
382 -53 -335 0
-382 -53 335 0
-382 53 327 0
383 689 -342 0
383 -689 -721 -384 0
383 721 -342 0
-383 689 342 0
-383 721 342 0
-383 -689 -721 384 0
384 -221 305 0
-384 221 0
-384 -305 0
-385 386 429 -465 -471 0
-385 -386 -429 -465 -471 0
-385 386 429 465 471 0
-385 -386 -429 465 471 0
385 386 -429 0
385 -386 429 0
385 465 -471 0
385 -465 471 0
386 -717 5 -423 0
386 717 5 -387 0
-386 -5 0
-386 -717 423 0
-386 717 387 0
387 718 -388 0
387 -718 -420 0
-387 -718 420 0
-387 718 388 0
388 719 -389 0
388 -719 -414 0
-388 -719 414 0
-388 719 389 0
389 720 -390 0
389 -720 -405 0
-389 -720 405 0
-389 720 390 0
390 721 -391 0
390 -721 -399 0
-390 -721 399 0
-390 721 391 0
391 22 46 -392 0
391 22 -46 -171 0
-391 -22 0
-391 -46 171 0
-391 46 392 0
-392 -47 115 0
-392 47 393 0
392 -47 -115 0
392 47 -393 0
-393 49 396 0
-393 -49 394 0
393 -49 -394 0
393 49 -396 0
394 -51 -84 0
394 51 -395 0
-394 51 395 0
-394 -51 84 0
395 -681 53 0
395 -680 -53 0
-395 681 53 0
-395 680 -53 0
396 51 -397 0
396 -51 -398 0
-396 -51 398 0
-396 51 397 0
397 -685 53 0
397 -684 -53 0
-397 685 53 0
-397 684 -53 0
398 -683 53 0
398 -682 -53 0
-398 683 53 0
-398 682 -53 0
399 22 46 -400 0
399 22 -46 -175 0
-399 -22 0
-399 -46 175 0
-399 46 400 0
-400 -47 128 0
-400 47 401 0
400 -47 -128 0
400 47 -401 0
-401 49 402 0
-401 -49 59 0
401 -49 -59 0
401 49 -402 0
402 51 -403 0
402 -51 -404 0
-402 -51 404 0
-402 51 403 0
403 -684 53 0
403 -683 -53 0
-403 684 53 0
-403 683 -53 0
404 -682 53 0
404 -681 -53 0
-404 682 53 0
-404 681 -53 0
405 721 -406 0
405 -721 -410 0
-405 -721 410 0
-405 721 406 0
406 22 46 -407 0
406 22 -46 -177 0
-406 -22 0
-406 -46 177 0
-406 46 407 0
-407 -47 136 0
-407 47 408 0
407 -47 -136 0
407 47 -408 0
-408 49 409 0
-408 -49 83 0
408 -49 -83 0
408 49 -409 0
409 -51 -395 0
409 51 -398 0
-409 51 398 0
-409 -51 395 0
410 22 46 -411 0
410 22 -46 -180 0
-410 -22 0
-410 -46 180 0
-410 46 411 0
-411 -47 147 0
-411 47 412 0
411 -47 -147 0
411 47 -412 0
-412 49 413 0
-412 -49 103 0
412 -49 -103 0
412 49 -413 0
413 -51 -60 0
413 51 -404 0
-413 51 404 0
-413 -51 60 0
414 -720 -349 0
414 720 -415 0
-414 720 415 0
-414 -720 349 0
415 -721 -21 0
415 721 -416 0
-415 721 416 0
-415 -721 21 0
416 22 -417 0
416 22 -419 0
-416 -22 0
-416 417 419 0
417 46 47 -418 0
417 46 -47 -155 0
-417 -46 0
-417 -47 155 0
-417 47 418 0
418 -49 -116 0
418 49 -394 0
-418 49 394 0
-418 -49 116 0
419 -46 -182 0
-419 46 0
-419 182 0
420 719 -421 0
420 -719 -422 0
-420 -719 422 0
-420 719 421 0
421 720 -350 0
421 -720 -352 0
-421 -720 352 0
-421 720 350 0
422 720 -353 0
422 -720 -356 0
-422 -720 356 0
-422 720 353 0
423 718 -424 0
423 -718 -427 0
-423 -718 427 0
-423 718 424 0
424 719 -425 0
424 -719 -426 0
-424 -719 426 0
-424 719 425 0
425 720 -357 0
425 -720 -359 0
-425 -720 359 0
-425 720 357 0
426 720 -360 0
426 -720 -364 0
-426 -720 364 0
-426 720 360 0
427 719 -428 0
-427 -719 0
-427 428 0
428 720 -365 0
428 -720 -367 0
-428 -720 367 0
-428 720 365 0
429 22 46 -430 0
-429 -22 0
-429 430 0
-429 -46 0
-430 47 431 0
-430 -47 462 0
430 -47 -462 0
430 47 -431 0
-431 -49 457 0
-431 49 432 0
431 49 -432 0
431 -49 -457 0
432 51 -433 0
432 -51 -448 0
-432 -51 448 0
-432 51 433 0
433 689 -434 0
433 -689 -721 -442 0
433 721 -434 0
-433 689 434 0
-433 721 434 0
-433 -689 -721 442 0
434 717 5 -435 0
434 -717 5 -322 0
-434 -5 0
-434 717 435 0
-434 -717 322 0
-435 -718 265 0
-435 718 436 0
435 -718 -265 0
435 718 -436 0
-436 719 439 0
-436 -719 437 0
436 -719 -437 0
436 719 -439 0
437 -720 -232 0
437 720 -438 0
-437 720 438 0
-437 -720 232 0
438 -681 721 0
438 -680 -721 0
-438 681 721 0
-438 680 -721 0
439 720 -440 0
439 -720 -441 0
-439 -720 441 0
-439 720 440 0
440 -685 721 0
440 -684 -721 0
-440 685 721 0
-440 684 -721 0
441 -683 721 0
441 -682 -721 0
-441 683 721 0
-441 682 -721 0
442 717 5 -443 0
442 -717 5 -326 0
-442 -5 0
-442 717 443 0
-442 -717 326 0
-443 -718 280 0
-443 718 444 0
443 -718 -280 0
443 718 -444 0
-444 719 445 0
-444 -719 208 0
444 -719 -208 0
444 719 -445 0
445 720 -446 0
445 -720 -447 0
-445 -720 447 0
-445 720 446 0
446 -684 721 0
446 -683 -721 0
-446 684 721 0
-446 683 -721 0
447 -682 721 0
447 -681 -721 0
-447 682 721 0
-447 681 -721 0
448 689 -449 0
448 -689 -721 -453 0
448 721 -449 0
-448 689 449 0
-448 721 449 0
-448 -689 -721 453 0
449 717 5 -450 0
449 -717 5 -333 0
-449 -5 0
-449 717 450 0
-449 -717 333 0
-450 -718 286 0
-450 718 451 0
450 -718 -286 0
450 718 -451 0
-451 719 452 0
-451 -719 231 0
451 -719 -231 0
451 719 -452 0
452 -720 -438 0
452 720 -441 0
-452 720 441 0
-452 -720 438 0
453 717 5 -454 0
453 -717 5 -336 0
-453 -5 0
-453 717 454 0
-453 -717 336 0
-454 -718 302 0
-454 718 455 0
454 -718 -302 0
454 718 -455 0
-455 719 456 0
-455 -719 254 0
455 -719 -254 0
455 719 -456 0
456 -720 -209 0
456 720 -447 0
-456 720 447 0
-456 -720 209 0
457 -51 -372 0
457 51 -458 0
-457 51 458 0
-457 -51 372 0
458 -53 -205 0
458 53 -459 0
-458 53 459 0
-458 -53 205 0
459 717 5 -460 0
459 -717 5 -343 0
-459 -5 0
-459 -717 343 0
-459 717 460 0
460 -718 -309 0
460 718 -461 0
-460 718 461 0
-460 -718 309 0
461 -719 -266 0
461 719 -437 0
-461 719 437 0
-461 -719 266 0
462 49 -463 0
462 -49 -464 0
-462 -49 464 0
-462 49 463 0
463 51 -373 0
463 -51 -375 0
-463 -51 375 0
-463 51 373 0
464 51 -376 0
464 -51 -379 0
-464 -51 379 0
-464 51 376 0
465 -717 5 -469 0
465 717 5 -466 0
-465 -5 0
-465 -717 469 0
-465 717 466 0
466 -718 -467 0
466 718 -468 0
-466 718 468 0
-466 -718 467 0
467 719 -172 0
467 -719 -185 0
-467 -719 185 0
-467 719 172 0
468 719 -123 0
468 -719 -158 0
-468 -719 158 0
-468 719 123 0
469 718 -470 0
-469 -718 0
-469 470 0
470 719 -192 0
-470 -719 0
-470 192 0
471 22 46 -472 0
-471 -22 0
-471 472 0
-471 -46 0
-472 -47 474 0
-472 47 473 0
472 47 -473 0
472 -47 -474 0
473 49 -275 0
473 -49 -312 0
-473 -49 312 0
-473 49 275 0
474 49 -323 0
474 -49 -475 0
-474 -49 475 0
-474 49 323 0
475 51 -476 0
475 -51 -478 0
-475 -51 478 0
-475 51 476 0
476 689 -384 0
476 -689 -721 -477 0
476 721 -384 0
-476 689 384 0
-476 721 384 0
-476 -689 -721 477 0
477 -244 305 0
-477 244 0
-477 -305 0
478 53 -259 305 0
478 -53 -271 305 0
-478 -305 0
-478 -53 271 0
-478 53 259 0
-479 480 504 511 517 0
-479 480 -504 -511 517 0
479 -517 0
479 -504 511 0
479 -480 0
479 504 -511 0
-480 481 489 -494 -497 0
-480 -481 -489 -494 -497 0
-480 481 489 494 497 0
-480 -481 -489 494 497 0
480 481 -489 0
480 -481 489 0
480 494 -497 0
480 -494 497 0
481 717 5 -485 0
481 -717 5 -482 0
-481 -5 0
-481 -717 482 0
-481 717 485 0
482 718 -483 0
482 -718 -484 0
-482 -718 484 0
-482 718 483 0
483 719 -358 0
483 -719 -363 0
-483 -719 363 0
-483 719 358 0
484 719 -366 0
-484 -719 0
-484 366 0
485 718 -486 0
485 -718 -488 0
-485 -718 488 0
-485 718 486 0
486 -719 -348 0
486 719 -487 0
-486 719 487 0
-486 -719 348 0
487 720 -405 0
487 -720 -415 0
-487 -720 415 0
-487 720 405 0
488 719 -351 0
488 -719 -355 0
-488 -719 355 0
-488 719 351 0
489 22 46 -490 0
-489 -22 0
-489 490 0
-489 -46 0
-490 47 491 0
-490 -47 493 0
490 -47 -493 0
490 47 -491 0
-491 49 492 0
-491 -49 371 0
491 -49 -371 0
491 49 -492 0
492 51 -448 0
492 -51 -458 0
-492 -51 458 0
-492 51 448 0
493 49 -374 0
493 -49 -378 0
-493 -49 378 0
-493 49 374 0
494 -717 5 -496 0
494 717 5 -495 0
-494 -5 0
-494 -717 496 0
-494 717 495 0
-495 -718 424 0
-495 718 420 0
495 718 -420 0
495 -718 -424 0
496 718 -427 0
-496 -718 0
-496 427 0
497 22 46 -498 0
-497 -22 0
-497 498 0
-497 -46 0
-498 -47 499 0
-498 47 462 0
498 47 -462 0
498 -47 -499 0
499 49 -500 0
499 -49 -501 0
-499 -49 501 0
-499 49 500 0
500 51 -380 0
500 -51 -382 0
-500 -51 382 0
-500 51 380 0
501 51 -383 0
501 -51 -502 0
-501 -51 502 0
-501 51 383 0
502 689 -477 0
502 -689 -721 -503 0
502 721 -477 0
-502 689 477 0
-502 721 477 0
-502 -689 -721 503 0
503 -259 305 0
-503 259 0
-503 -305 0
504 -717 5 -510 0
504 717 5 -505 0
-504 -5 0
-504 -717 510 0
-504 717 505 0
-505 -718 468 0
-505 718 506 0
505 -718 -468 0
505 718 -506 0
-506 719 507 0
-506 -719 19 0
506 -719 -19 0
506 719 -507 0
507 720 -508 0
507 -720 -509 0
-507 -720 509 0
-507 720 508 0
508 721 -399 0
508 -721 -406 0
-508 -721 406 0
-508 721 399 0
509 721 -410 0
509 -721 -416 0
-509 -721 416 0
-509 721 410 0
510 718 -467 0
510 -718 -470 0
-510 -718 470 0
-510 718 467 0
511 22 46 -512 0
-511 -22 0
-511 512 0
-511 -46 0
-512 -47 473 0
-512 47 513 0
512 -47 -473 0
512 47 -513 0
-513 49 514 0
-513 -49 203 0
513 -49 -203 0
513 49 -514 0
514 51 -515 0
514 -51 -516 0
-514 -51 516 0
-514 51 515 0
515 689 -442 0
515 -689 -721 -449 0
515 721 -442 0
-515 689 442 0
-515 721 442 0
-515 -689 -721 449 0
516 53 -453 0
516 -53 -459 0
-516 -53 459 0
-516 53 453 0
-517 518 524 -528 -541 0
-517 -518 -524 -528 -541 0
-517 518 524 528 541 0
-517 -518 -524 528 541 0
517 518 -524 0
517 -518 524 0
517 528 -541 0
517 -528 541 0
518 -717 5 -522 0
518 717 5 -519 0
-518 -5 0
-518 -717 522 0
-518 717 519 0
-519 -718 521 0
-519 718 520 0
519 718 -520 0
519 -718 -521 0
520 719 -414 0
520 -719 -421 0
-520 -719 421 0
-520 719 414 0
521 719 -422 0
521 -719 -425 0
-521 -719 425 0
-521 719 422 0
522 718 -523 0
-522 -718 0
-522 523 0
523 719 -426 0
523 -719 -428 0
-523 -719 428 0
-523 719 426 0
524 -46 161 0
524 161 -525 0
-524 -161 0
-524 46 525 0
525 47 -526 0
525 -47 -527 0
-525 -47 527 0
-525 47 526 0
526 49 -457 0
526 -49 -463 0
-526 -49 463 0
-526 49 457 0
527 49 -464 0
527 -49 -500 0
-527 -49 500 0
-527 49 464 0
528 717 5 -534 0
528 -717 5 -529 0
-528 -5 0
-528 -717 529 0
-528 717 534 0
529 718 -530 0
529 -718 719 -533 0
-529 -718 -719 0
-529 718 530 0
-529 -718 533 0
530 719 -531 0
530 -719 -532 0
-530 -719 532 0
-530 719 531 0
531 720 -178 0
531 -720 -186 0
-531 -720 186 0
-531 720 178 0
532 720 -189 0
532 -720 -193 0
-532 -720 193 0
-532 720 189 0
533 720 -198 0
-533 -720 0
-533 198 0
534 718 -535 0
534 -718 -538 0
-534 -718 538 0
-534 718 535 0
535 -719 -536 0
535 719 -537 0
-535 719 537 0
-535 -719 536 0
536 720 -96 0
536 -720 -124 0
-536 -720 124 0
-536 720 96 0
537 -720 -20 0
537 720 -509 0
-537 720 509 0
-537 -720 20 0
538 719 -539 0
538 -719 -540 0
-538 -719 540 0
-538 719 539 0
539 720 -142 0
539 -720 -159 0
-539 -720 159 0
-539 720 142 0
540 720 -166 0
540 -720 -173 0
-540 -720 173 0
-540 720 166 0
541 -46 161 0
541 161 -542 545 0
-541 -161 0
-541 46 -545 0
-541 46 542 0
-542 47 -49 544 0
-542 47 49 543 0
542 -47 0
542 -49 -544 0
542 49 -543 0
543 -51 -204 0
543 51 -516 0
-543 51 516 0
-543 -51 204 0
544 51 -250 0
544 -51 -276 0
-544 -51 276 0
-544 51 250 0
545 -47 -49 547 0
545 -47 49 546 0
-545 47 0
-545 -49 -547 0
-545 49 -546 0
546 51 -295 0
546 -51 -313 0
-546 -51 313 0
-546 51 295 0
547 51 -318 0
547 -51 -324 0
-547 -51 324 0
-547 51 318 0
-548 549 562 0
-548 305 549 -561 0
548 -549 0
548 -305 -562 0
548 561 -562 0
549 550 -556 0
549 -550 556 0
-549 -550 -556 0
-549 550 556 0
550 -717 5 -554 0
550 717 5 -551 0
-550 -5 0
-550 -717 554 0
-550 717 551 0
-551 -718 553 0
-551 718 552 0
551 718 -552 0
551 -718 -553 0
552 719 -536 0
552 -719 -539 0
-552 -719 539 0
-552 719 536 0
553 -719 -531 0
553 719 -540 0
-553 719 540 0
-553 -719 531 0
554 718 -555 0
-554 -718 0
-554 555 0
555 719 -532 0
555 -719 -533 0
-555 -719 533 0
-555 719 532 0
556 22 46 -557 0
-556 -22 0
-556 557 0
-556 -46 0
-557 -47 559 0
-557 47 558 0
557 47 -558 0
557 -47 -559 0
558 49 -544 0
558 -49 -546 0
-558 -49 546 0
-558 49 544 0
559 49 -547 0
559 -49 -560 0
-559 -49 560 0
-559 49 547 0
560 51 -334 0
560 -51 -476 0
-560 -51 476 0
-560 51 334 0
561 718 -553 0
561 -718 -555 0
-561 -718 555 0
-561 718 553 0
562 47 161 -559 0
-562 559 0
-562 -161 0
-562 -47 0
-563 564 -619 -630 640 0
-563 564 619 630 640 0
563 -640 0
563 -619 630 0
563 -564 0
563 619 -630 0
-564 565 581 -596 -608 0
-564 -565 -581 -596 -608 0
-564 565 581 596 608 0
-564 -565 -581 596 608 0
564 565 -581 0
564 -565 581 0
564 596 -608 0
564 -596 608 0
565 -717 5 -580 0
565 717 5 -566 0
-565 -5 0
-565 -717 580 0
-565 717 566 0
566 -718 -347 0
566 718 -567 0
-566 718 567 0
-566 -718 347 0
567 -719 -487 0
567 719 -568 0
-567 719 568 0
-567 -719 487 0
568 -720 -390 0
568 720 -569 0
-568 720 569 0
-568 -720 390 0
569 721 -570 0
569 -721 -575 0
-569 -721 575 0
-569 721 570 0
570 22 46 -571 0
570 22 -46 -165 0
-570 -22 0
-570 -46 165 0
-570 46 571 0
-571 -47 82 0
-571 47 572 0
571 -47 -82 0
571 47 -572 0
-572 -49 409 0
-572 49 573 0
572 -49 -409 0
572 49 -573 0
-573 51 574 0
-573 -51 397 0
573 -51 -397 0
573 51 -574 0
574 -687 53 0
574 -686 -53 0
-574 687 53 0
-574 686 -53 0
575 22 46 -576 0
575 22 -46 -168 0
-575 -22 0
-575 -46 168 0
-575 46 576 0
-576 -47 102 0
-576 47 577 0
576 -47 -102 0
576 47 -577 0
-577 -49 413 0
-577 49 578 0
577 -49 -413 0
577 49 -578 0
-578 51 579 0
-578 -51 403 0
578 -51 -403 0
578 51 -579 0
579 -686 53 0
579 -685 -53 0
-579 686 53 0
-579 685 -53 0
580 718 -354 0
580 -718 -362 0
-580 -718 362 0
-580 718 354 0
581 22 46 -582 0
-581 -22 0
-581 582 0
-581 -46 0
-582 -47 370 0
-582 47 583 0
582 -47 -370 0
582 47 -583 0
-583 -49 492 0
-583 49 584 0
583 -49 -492 0
583 49 -584 0
-584 51 585 0
-584 -51 433 0
584 -51 -433 0
584 51 -585 0
585 689 -586 0
585 -689 -721 -591 0
585 721 -586 0
-585 689 586 0
-585 721 586 0
-585 -689 -721 591 0
586 717 5 -587 0
586 -717 5 -317 0
-586 -5 0
-586 717 587 0
-586 -717 317 0
-587 -718 230 0
-587 718 588 0
587 -718 -230 0
587 718 -588 0
-588 -719 452 0
-588 719 589 0
588 -719 -452 0
588 719 -589 0
-589 720 590 0
-589 -720 440 0
589 -720 -440 0
589 720 -590 0
590 -687 721 0
590 -686 -721 0
-590 687 721 0
-590 686 -721 0
591 717 5 -592 0
591 -717 5 -320 0
-591 -5 0
-591 717 592 0
-591 -717 320 0
-592 -718 253 0
-592 718 593 0
592 -718 -253 0
592 718 -593 0
-593 -719 456 0
-593 719 594 0
593 -719 -456 0
593 719 -594 0
-594 720 595 0
-594 -720 446 0
594 -720 -446 0
594 720 -595 0
595 -686 721 0
595 -685 -721 0
-595 686 721 0
-595 685 -721 0
596 -717 5 -607 0
596 717 5 -597 0
-596 -5 0
-596 -717 607 0
-596 717 597 0
597 -718 -18 0
597 718 -598 0
-597 718 598 0
-597 -718 18 0
598 -719 -507 0
598 719 -599 0
-598 719 599 0
-598 -719 507 0
599 720 -600 0
599 -720 -606 0
-599 -720 606 0
-599 720 600 0
600 -721 -570 0
600 721 -601 0
-600 721 601 0
-600 -721 570 0
601 22 46 -602 0
601 22 -46 -163 0
-601 -22 0
-601 -46 163 0
-601 46 602 0
-602 -47 58 0
-602 47 603 0
602 -47 -58 0
602 47 -603 0
-603 -49 402 0
-603 49 604 0
603 -49 -402 0
603 49 -604 0
-604 51 605 0
-604 -51 579 0
604 -51 -579 0
604 51 -605 0
605 -688 53 0
605 -687 -53 0
-605 688 53 0
-605 687 -53 0
606 -721 -391 0
606 721 -575 0
-606 721 575 0
-606 -721 391 0
607 718 -157 0
607 -718 -184 0
-607 -718 184 0
-607 718 157 0
608 22 46 -609 0
-608 -22 0
-608 609 0
-608 -46 0
-609 -47 202 0
-609 47 610 0
609 -47 -202 0
609 47 -610 0
-610 -49 514 0
-610 49 611 0
610 -49 -514 0
610 49 -611 0
-611 51 613 0
-611 -51 612 0
611 -51 -612 0
611 51 -613 0
612 721 -591 0
612 689 -591 0
612 -689 -721 -434 0
-612 689 591 0
-612 -689 -721 434 0
-612 721 591 0
613 721 -614 0
613 689 -614 0
613 -689 -721 -586 0
-613 689 614 0
-613 -689 -721 586 0
-613 721 614 0
614 717 5 -615 0
614 -717 5 -315 0
-614 -5 0
-614 717 615 0
-614 -717 315 0
-615 -718 207 0
-615 718 616 0
615 -718 -207 0
615 718 -616 0
-616 -719 445 0
-616 719 617 0
616 -719 -445 0
616 719 -617 0
-617 720 618 0
-617 -720 595 0
617 -720 -595 0
617 720 -618 0
618 -688 721 0
618 -687 -721 0
-618 688 721 0
-618 687 -721 0
619 -717 5 -629 0
619 717 5 -620 0
-619 -5 0
-619 -717 629 0
-619 717 620 0
620 -718 -520 0
620 718 -621 0
-620 718 621 0
-620 -718 520 0
621 -719 -389 0
621 719 -622 0
-621 719 622 0
-621 -719 389 0
622 -720 -569 0
622 720 -623 0
-622 720 623 0
-622 -720 569 0
623 -721 -601 0
623 721 22 -624 0
-623 -721 601 0
-623 721 624 0
-623 721 -22 0
-624 -46 154 0
-624 46 625 0
624 -46 -154 0
624 46 -625 0
-625 -47 418 0
-625 47 626 0
625 -47 -418 0
625 47 -626 0
-626 -49 396 0
-626 49 627 0
626 -49 -396 0
626 49 -627 0
-627 -51 574 0
-627 689 51 0
-627 51 -628 0
627 -51 -574 0
627 -689 51 628 0
628 688 -721 0
-628 -688 0
-628 721 0
629 718 -521 0
629 -718 -523 0
-629 -718 523 0
-629 718 521 0
630 22 46 -631 0
-630 -22 0
-630 631 0
-630 -46 0
-631 -47 526 0
-631 47 632 0
631 -47 -526 0
631 47 -632 0
-632 -49 432 0
-632 49 633 0
632 -49 -432 0
632 49 -633 0
-633 51 634 0
-633 -51 585 0
633 -51 -585 0
633 51 -634 0
634 -53 -614 0
634 5 53 -635 0
-634 -53 614 0
-634 -5 53 0
-634 53 635 0
-635 -717 308 0
-635 717 636 0
635 -717 -308 0
635 717 -636 0
-636 -718 461 0
-636 718 637 0
636 -718 -461 0
636 718 -637 0
-637 719 638 0
-637 -719 439 0
637 -719 -439 0
637 719 -638 0
638 -720 -590 0
638 720 -639 0
-638 720 639 0
-638 -720 590 0
639 -689 721 0
639 -688 -721 0
-639 689 721 0
-639 688 -721 0
640 641 -645 0
640 -641 645 0
-640 -641 -645 0
-640 641 645 0
641 717 5 -642 0
641 -717 5 -561 0
-641 -5 0
-641 -717 561 0
-641 717 642 0
642 -718 -552 0
642 718 -643 0
-642 718 643 0
-642 -718 552 0
643 -719 -537 0
643 719 -644 0
-643 719 644 0
-643 -719 537 0
644 -720 -508 0
644 720 -606 0
-644 720 606 0
-644 -720 508 0
645 22 46 -646 0
-645 -22 0
-645 646 0
-645 -46 0
-646 -47 558 0
-646 47 647 0
646 -47 -558 0
646 47 -647 0
-647 -49 543 0
-647 49 648 0
647 -49 -543 0
647 49 -648 0
-648 51 612 0
-648 -51 515 0
648 -51 -515 0
648 51 -612 0
-649 4 -650 -653 0
-649 -200 650 653 0
-649 4 650 653 0
-649 -200 -650 -653 0
649 650 -653 0
649 -650 653 0
649 -4 200 0
650 -717 5 -652 0
650 717 5 -651 0
-650 -5 0
-650 -717 652 0
-650 717 651 0
651 -718 -483 0
651 718 -488 0
-651 718 488 0
-651 -718 483 0
652 718 -484 0
-652 -718 0
-652 484 0
653 -46 161 0
653 161 -654 0
-653 -161 0
-653 46 654 0
654 47 -493 0
654 -47 -655 0
-654 -47 655 0
-654 47 493 0
655 49 -381 0
655 -49 -656 0
-655 -49 656 0
-655 49 381 0
656 51 -502 0
656 -51 -657 0
-656 -51 657 0
-656 51 502 0
657 53 -271 305 0
657 -53 -281 305 0
-657 -305 0
-657 -53 281 0
-657 53 271 0
-722 0
2 0

